(set-logic QF_FPABV)
(declare-fun |c::main::1::IN!0@1#0| () (_ FP 8 24))
(define-fun .3 () RoundingMode roundNearestTiesToEven)
(define-fun .9 () (_ FP 8 24) |c::main::1::IN!0@1#0|)
(define-fun .11 () (_ FP 8 24) ((_ asFloat 8 24) roundTowardZero 1.57079637050628662109))
(define-fun .12 () Bool (< .9 .11))
(define-fun .14 () (_ FP 8 24) ((_ asFloat 8 24) roundTowardZero (- 1.57079637050628662109)))
(define-fun .15 () Bool (< .14 .9))
(define-fun .16 () Bool (and .12 .15))
(define-fun .17 () (_ FP 8 24) (* .3 .9 .9))
(define-fun .18 () (_ FP 8 24) (* .3 .9 .17))
(define-fun .20 () (_ FP 8 24) ((_ asFloat 8 24) roundTowardZero 6.0))
(define-fun .21 () (_ FP 8 24) (/ .3 .18 .20))
(define-fun .22 () (_ FP 8 24) (- .21))
(define-fun .23 () (_ FP 8 24) (+ .3 .9 .22))
(define-fun .24 () (_ FP 8 24) (* .3 .9 .18))
(define-fun .25 () (_ FP 8 24) (* .3 .9 .24))
(define-fun .27 () (_ FP 8 24) ((_ asFloat 8 24) roundTowardZero 120.0))
(define-fun .28 () (_ FP 8 24) (/ .3 .25 .27))
(define-fun .29 () (_ FP 8 24) (+ .3 .23 .28))
(define-fun .30 () (_ FP 8 24) (* .3 .9 .25))
(define-fun .31 () (_ FP 8 24) (* .3 .9 .30))
(define-fun .33 () (_ FP 8 24) ((_ asFloat 8 24) roundTowardZero 5040.0))
(define-fun .34 () (_ FP 8 24) (/ .3 .31 .33))
(define-fun .35 () (_ FP 8 24) (+ .3 .29 .34))
(define-fun .36 () (_ FP 11 53) ((_ asFloat 11 53) .3 .35))
(define-fun .38 () (_ FP 11 53) ((_ asFloat 11 53) roundTowardZero 0.989999999999999991118))
(define-fun .39 () Bool (<= .36 .38))
(define-fun .40 () Bool (not .39))
(define-fun .41 () Bool (and .16 .40))
(assert .41)
(check-sat)
